sat
(:added-eqs                       9469
 :arith-eq-adapter                443
 :arith-bound-propagations-lp     373
 :arith-branch                    6
 :arith-conflicts                 970
 :arith-cube-calls                2
 :arith-diseq                     2078
 :arith-fixed-eqs                 1145
 :arith-gcd-calls                 52
 :arith-gcd-conflict              1
 :arith-gomory-cuts               6
 :arith-grobner-calls             186
 :arith-grobner-conflicts         34
 :arith-hnf-calls                 2
 :arith-horner-calls              49
 :arith-horner-conflicts          1
 :arith-horner-cross-nested-forms 6653
 :arith-lower                     2558
 :arith-make-feasible             2876
 :arith-max-columns               1069
 :arith-max-rows                  472
 :arith-nla-add-bounds            43
 :arith-nla-lemmas                670
 :arith-nla-propagate-bounds      178
 :arith-nla-propagate-eq          8411
 :arith-nra-calls                 16
 :arith-offset-eqs                964
 :arith-patches                   51
 :arith-patches-success           41
 :arith-upper                     2755
 :binary-propagations             5358
 :conflicts                       191
 :decisions                       12077
 :del-clause                      1355
 :elim-unconstrained              8
 :final-checks                    360
 :max-memory                      123.60
 :memory                          102.16
 :minimized-lits                  3
 :mk-bool-var                     3652
 :mk-clause                       2023
 :mk-clause-binary                6616
 :num-allocs                      298398516
 :num-checks                      1
 :propagations                    10068
 :restarts                        1
 :rlimit-count                    1021684
 :time                            1.23
 :total-time                      1.25)
